n_res = 3;
rc = [ 6, 4, 5 ];
n_tasks = 20;
d = [ 3, 3, 2, 3, 3, 1, 1, 3, 1, 1, 3, 2, 3, 3, 2, 5, 5, 3, 4, 2 ];
rr = [| 1, 3, 3, 0, 3, 3, 1, 3, 0, 3, 1, 1, 1, 1, 3, 1, 2, 1, 3, 0
      | 0, 0, 2, 0, 2, 2, 0, 0, 1, 0, 2, 0, 1, 1, 0, 2, 1, 1, 1, 1
      | 2, 1, 0, 2, 0, 2, 0, 0, 1, 0, 0, 0, 0, 1, 0, 0, 0, 1, 2, 0 |];
suc = [ {  },
       { 4 },
       { 8, 15, 20 },
       { 14 },
       {  },
       { 9 },
       { 8, 12, 19 },
       { 11, 18 },
       { 13, 17 },
       {  },
       {  },
       {  },
       {  },
       {  },
       { 19 },
       { 19 },
       {  },
       {  },
       {  },
       {  } ];
